h -5 3 0
h 1 4 0
h -4 2 0
h -3 -1 5 0
h -1 -4 0
h -4 1 0
h 6 0
h -4 7 0
h 8 0
h 9 0
h 10 0
h -5 11 2 0
1 -11 0
h 12 0
h 13 0
h 14 0
h 15 0
h 16 0
h 17 0
h -5 -1 18 0
1 -18 0
h 19 4 3 0
h 19 2 4 0
1 -19 0
h 20 -3 4 0
h 20 4 2 0
1 -20 0
h -1 21 -3 0
1 -21 0
h 3 -1 22 0
1 -22 0
h 23 0
h 24 0
h -2 4 0
h 25 0
h -4 26 0
h 27 0
h 2 3 28 0
1 -28 0
